(set-info :source |printed by MathSAT|)
(declare-fun .PC.1 () Bool)
(declare-fun .PC.3 () Bool)
(declare-fun .PC.0 () Bool)
(declare-fun .PC.2 () Bool)
(declare-fun j () (_ BitVec 32))
(declare-fun .PC.1.next () Bool)
(declare-fun k.next () (_ BitVec 32))
(declare-fun r.next () (_ BitVec 32))
(declare-fun i () (_ BitVec 32))
(declare-fun z.next () (_ BitVec 32))
(declare-fun k () (_ BitVec 32))
(declare-fun x () (_ BitVec 32))
(declare-fun l.next () (_ BitVec 32))
(declare-fun u.next () (_ BitVec 32))
(declare-fun u () (_ BitVec 32))
(declare-fun y.next () (_ BitVec 32))
(declare-fun r () (_ BitVec 32))
(declare-fun .PC.2.next () Bool)
(declare-fun x.next () (_ BitVec 32))
(declare-fun __RET__$main.next () (_ BitVec 32))
(declare-fun z () (_ BitVec 32))
(declare-fun l () (_ BitVec 32))
(declare-fun __RET__$main () (_ BitVec 32))
(declare-fun .PC.3.next () Bool)
(declare-fun .PC.0.next () Bool)
(declare-fun i.next () (_ BitVec 32))
(declare-fun y () (_ BitVec 32))
(declare-fun j.next () (_ BitVec 32))
(declare-fun y.SSA.1.ssa () (_ BitVec 32))
(define-fun .def_15 () Bool (! .PC.0 :next |.PC.0.next|))
(define-fun .def_16 () Bool (not .def_15))
(define-fun .def_13 () Bool (! .PC.1 :next |.PC.1.next|))
(define-fun .def_14 () Bool (not .def_13))
(define-fun .def_17 () Bool (and .def_14 .def_16))
(define-fun .def_11 () Bool (! .PC.2 :next |.PC.2.next|))
(define-fun .def_12 () Bool (not .def_11))
(define-fun .def_18 () Bool (and .def_12 .def_17))
(define-fun .def_9 () Bool (! .PC.3 :next |.PC.3.next|))
(define-fun .def_10 () Bool (not .def_9))
(define-fun .def_19 () Bool (! (and .def_10 .def_18) :init true))
(define-fun .def_300 () Bool (= x.next (_ bv1 32)))
(define-fun .def_37 () (_ BitVec 32) (! __RET__$main :next |__RET__$main.next|))
(define-fun .def_38 () Bool (= __RET__$main.next .def_37))
(define-fun .def_301 () Bool (and .def_38 .def_300))
(define-fun .def_34 () (_ BitVec 32) (! i :next |i.next|))
(define-fun .def_35 () Bool (= i.next .def_34))
(define-fun .def_302 () Bool (and .def_35 .def_301))
(define-fun .def_41 () (_ BitVec 32) (! j :next |j.next|))
(define-fun .def_42 () Bool (= j.next .def_41))
(define-fun .def_303 () Bool (and .def_42 .def_302))
(define-fun .def_45 () (_ BitVec 32) (! k :next |k.next|))
(define-fun .def_46 () Bool (= k.next .def_45))
(define-fun .def_304 () Bool (and .def_46 .def_303))
(define-fun .def_49 () (_ BitVec 32) (! l :next |l.next|))
(define-fun .def_50 () Bool (= l.next .def_49))
(define-fun .def_305 () Bool (and .def_50 .def_304))
(define-fun .def_53 () (_ BitVec 32) (! r :next |r.next|))
(define-fun .def_54 () Bool (= r.next .def_53))
(define-fun .def_306 () Bool (and .def_54 .def_305))
(define-fun .def_57 () (_ BitVec 32) (! u :next |u.next|))
(define-fun .def_58 () Bool (= u.next .def_57))
(define-fun .def_307 () Bool (and .def_58 .def_306))
(define-fun .def_65 () (_ BitVec 32) (! y :next |y.next|))
(define-fun .def_66 () Bool (= y.next .def_65))
(define-fun .def_308 () Bool (and .def_66 .def_307))
(define-fun .def_69 () (_ BitVec 32) (! z :next |z.next|))
(define-fun .def_70 () Bool (= z.next .def_69))
(define-fun .def_309 () Bool (and .def_70 .def_308))
(define-fun .def_99 () Bool (not .PC.3.next))
(define-fun .def_25 () Bool (not .PC.2.next))
(define-fun .def_21 () Bool (not .PC.1.next))
(define-fun .def_23 () Bool (and .def_21 .PC.0.next))
(define-fun .def_26 () Bool (and .def_23 .def_25))
(define-fun .def_270 () Bool (and .def_26 .def_99))
(define-fun .def_310 () Bool (and .def_270 .def_309))
(define-fun .def_311 () Bool (and .def_19 .def_310))
(define-fun .def_29 () Bool (and .def_14 .def_15))
(define-fun .def_30 () Bool (and .def_12 .def_29))
(define-fun .def_298 () Bool (and .def_10 .def_30))
(define-fun .def_61 () (_ BitVec 32) (! x :next |x.next|))
(define-fun .def_285 () (_ BitVec 1) ((_ extract 31 31) .def_61))
(define-fun .def_286 () Bool (= .def_285 (_ bv1 1)))
(define-fun .def_284 () Bool (= z.next (_ bv1 32)))
(define-fun .def_287 () Bool (and .def_284 .def_286))
(define-fun .def_288 () Bool (and .def_38 .def_287))
(define-fun .def_289 () Bool (and .def_35 .def_288))
(define-fun .def_290 () Bool (and .def_42 .def_289))
(define-fun .def_291 () Bool (and .def_46 .def_290))
(define-fun .def_292 () Bool (and .def_50 .def_291))
(define-fun .def_293 () Bool (and .def_54 .def_292))
(define-fun .def_294 () Bool (and .def_58 .def_293))
(define-fun .def_62 () Bool (= x.next .def_61))
(define-fun .def_295 () Bool (and .def_62 .def_294))
(define-fun .def_296 () Bool (and .def_66 .def_295))
(define-fun .def_97 () Bool (and .PC.1.next .PC.0.next))
(define-fun .def_98 () Bool (and .def_25 .def_97))
(define-fun .def_100 () Bool (and .def_98 .def_99))
(define-fun .def_297 () Bool (and .def_100 .def_296))
(define-fun .def_299 () Bool (and .def_297 .def_298))
(define-fun .def_312 () Bool (or .def_299 .def_311))
(define-fun .def_102 () (_ BitVec 32) (bvshl .def_61 (_ bv1 32)))
(define-fun .def_271 () Bool (= x.next .def_102))
(define-fun .def_240 () (_ BitVec 32) (bvadd .def_61 .def_69))
(define-fun .def_245 () Bool (bvslt (_ bv0 32) .def_240))
(define-fun .def_272 () Bool (and .def_245 .def_271))
(define-fun .def_273 () Bool (and .def_38 .def_272))
(define-fun .def_274 () Bool (and .def_35 .def_273))
(define-fun .def_275 () Bool (and .def_42 .def_274))
(define-fun .def_276 () Bool (and .def_46 .def_275))
(define-fun .def_277 () Bool (and .def_50 .def_276))
(define-fun .def_278 () Bool (and .def_54 .def_277))
(define-fun .def_279 () Bool (and .def_58 .def_278))
(define-fun .def_280 () Bool (and .def_66 .def_279))
(define-fun .def_281 () Bool (and .def_70 .def_280))
(define-fun .def_282 () Bool (and .def_270 .def_281))
(define-fun .def_134 () Bool (and .def_13 .def_15))
(define-fun .def_267 () Bool (and .def_12 .def_134))
(define-fun .def_268 () Bool (and .def_10 .def_267))
(define-fun .def_283 () Bool (and .def_268 .def_282))
(define-fun .def_313 () Bool (or .def_283 .def_312))
(define-fun .def_248 () Bool (bvslt (_ bv0 32) y.SSA.1.ssa))
(define-fun .def_253 () Bool (not .def_248))
(define-fun .def_246 () Bool (not .def_245))
(define-fun .def_104 () (_ BitVec 32) (bvadd .def_69 .def_102))
(define-fun .def_244 () Bool (= .def_104 y.SSA.1.ssa))
(define-fun .def_247 () Bool (and .def_244 .def_246))
(define-fun .def_254 () Bool (and .def_247 .def_253))
(define-fun .def_252 () Bool (= y.next y.SSA.1.ssa))
(define-fun .def_255 () Bool (and .def_252 .def_254))
(define-fun .def_250 () Bool (= y.next (_ bv1 32)))
(define-fun .def_249 () Bool (and .def_247 .def_248))
(define-fun .def_251 () Bool (and .def_249 .def_250))
(define-fun .def_256 () Bool (or .def_251 .def_255))
(define-fun .def_242 () Bool (= l.next .def_69))
(define-fun .def_257 () Bool (and .def_242 .def_256))
(define-fun .def_241 () Bool (= r.next .def_240))
(define-fun .def_258 () Bool (and .def_241 .def_257))
(define-fun .def_239 () Bool (= u.next y.next))
(define-fun .def_259 () Bool (and .def_239 .def_258))
(define-fun .def_238 () Bool (= i.next l.next))
(define-fun .def_260 () Bool (and .def_238 .def_259))
(define-fun .def_237 () Bool (= j.next r.next))
(define-fun .def_261 () Bool (and .def_237 .def_260))
(define-fun .def_236 () Bool (= k.next l.next))
(define-fun .def_262 () Bool (and .def_236 .def_261))
(define-fun .def_263 () Bool (and .def_38 .def_262))
(define-fun .def_264 () Bool (and .def_62 .def_263))
(define-fun .def_265 () Bool (and .def_70 .def_264))
(define-fun .def_76 () Bool (not .PC.0.next))
(define-fun .def_77 () Bool (and .def_21 .def_76))
(define-fun .def_186 () Bool (and .PC.2.next .def_77))
(define-fun .def_187 () Bool (and .def_99 .def_186))
(define-fun .def_266 () Bool (and .def_187 .def_265))
(define-fun .def_269 () Bool (and .def_266 .def_268))
(define-fun .def_314 () Bool (or .def_269 .def_313))
(define-fun .def_157 () Bool (bvslt .def_34 .def_53))
(define-fun .def_122 () Bool (bvslt .def_41 .def_57))
(define-fun .def_139 () Bool (not .def_122))
(define-fun .def_206 () Bool (and .def_139 .def_157))
(define-fun .def_173 () Bool (not .def_157))
(define-fun .def_207 () Bool (or .def_173 .def_206))
(define-fun .def_204 () Bool (bvslt (_ bv0 32) .def_45))
(define-fun .def_223 () Bool (and .def_204 .def_207))
(define-fun .def_224 () Bool (and .def_38 .def_223))
(define-fun .def_225 () Bool (and .def_35 .def_224))
(define-fun .def_226 () Bool (and .def_42 .def_225))
(define-fun .def_227 () Bool (and .def_46 .def_226))
(define-fun .def_228 () Bool (and .def_50 .def_227))
(define-fun .def_229 () Bool (and .def_54 .def_228))
(define-fun .def_230 () Bool (and .def_58 .def_229))
(define-fun .def_231 () Bool (and .def_62 .def_230))
(define-fun .def_232 () Bool (and .def_66 .def_231))
(define-fun .def_233 () Bool (and .def_70 .def_232))
(define-fun .def_221 () Bool (and .def_23 .PC.2.next))
(define-fun .def_222 () Bool (and .def_99 .def_221))
(define-fun .def_234 () Bool (and .def_222 .def_233))
(define-fun .def_200 () Bool (and .def_11 .def_17))
(define-fun .def_201 () Bool (and .def_10 .def_200))
(define-fun .def_235 () Bool (and .def_201 .def_234))
(define-fun .def_315 () Bool (or .def_235 .def_314))
(define-fun .def_205 () Bool (not .def_204))
(define-fun .def_208 () Bool (and .def_205 .def_207))
(define-fun .def_209 () Bool (and .def_38 .def_208))
(define-fun .def_210 () Bool (and .def_35 .def_209))
(define-fun .def_211 () Bool (and .def_42 .def_210))
(define-fun .def_212 () Bool (and .def_46 .def_211))
(define-fun .def_213 () Bool (and .def_50 .def_212))
(define-fun .def_214 () Bool (and .def_54 .def_213))
(define-fun .def_215 () Bool (and .def_58 .def_214))
(define-fun .def_216 () Bool (and .def_62 .def_215))
(define-fun .def_217 () Bool (and .def_66 .def_216))
(define-fun .def_218 () Bool (and .def_70 .def_217))
(define-fun .def_152 () Bool (and .PC.1.next .def_76))
(define-fun .def_153 () Bool (and .PC.2.next .def_152))
(define-fun .def_154 () Bool (and .def_99 .def_153))
(define-fun .def_219 () Bool (and .def_154 .def_218))
(define-fun .def_220 () Bool (and .def_201 .def_219))
(define-fun .def_316 () Bool (or .def_220 .def_315))
(define-fun .def_188 () Bool (and .def_122 .def_157))
(define-fun .def_120 () (_ BitVec 32) (bvadd (_ bv1 32) .def_41))
(define-fun .def_121 () Bool (= j.next .def_120))
(define-fun .def_189 () Bool (and .def_121 .def_188))
(define-fun .def_82 () (_ BitVec 32) (bvadd (_ bv1 32) .def_45))
(define-fun .def_83 () Bool (= k.next .def_82))
(define-fun .def_190 () Bool (and .def_83 .def_189))
(define-fun .def_191 () Bool (and .def_38 .def_190))
(define-fun .def_192 () Bool (and .def_35 .def_191))
(define-fun .def_193 () Bool (and .def_50 .def_192))
(define-fun .def_194 () Bool (and .def_54 .def_193))
(define-fun .def_195 () Bool (and .def_58 .def_194))
(define-fun .def_196 () Bool (and .def_62 .def_195))
(define-fun .def_197 () Bool (and .def_66 .def_196))
(define-fun .def_198 () Bool (and .def_70 .def_197))
(define-fun .def_199 () Bool (and .def_187 .def_198))
(define-fun .def_202 () Bool (and .def_199 .def_201))
(define-fun .def_317 () Bool (or .def_202 .def_316))
(define-fun .def_174 () Bool (and .def_38 .def_173))
(define-fun .def_175 () Bool (and .def_35 .def_174))
(define-fun .def_176 () Bool (and .def_42 .def_175))
(define-fun .def_177 () Bool (and .def_46 .def_176))
(define-fun .def_178 () Bool (and .def_50 .def_177))
(define-fun .def_179 () Bool (and .def_54 .def_178))
(define-fun .def_180 () Bool (and .def_58 .def_179))
(define-fun .def_181 () Bool (and .def_62 .def_180))
(define-fun .def_182 () Bool (and .def_66 .def_181))
(define-fun .def_183 () Bool (and .def_70 .def_182))
(define-fun .def_118 () Bool (and .PC.2.next .def_97))
(define-fun .def_119 () Bool (and .def_99 .def_118))
(define-fun .def_184 () Bool (and .def_119 .def_183))
(define-fun .def_169 () Bool (and .def_13 .def_16))
(define-fun .def_170 () Bool (and .def_11 .def_169))
(define-fun .def_171 () Bool (and .def_10 .def_170))
(define-fun .def_185 () Bool (and .def_171 .def_184))
(define-fun .def_318 () Bool (or .def_185 .def_317))
(define-fun .def_155 () (_ BitVec 32) (bvadd (_ bv1 32) .def_34))
(define-fun .def_156 () Bool (= i.next .def_155))
(define-fun .def_158 () Bool (and .def_156 .def_157))
(define-fun .def_159 () Bool (and .def_83 .def_158))
(define-fun .def_160 () Bool (and .def_38 .def_159))
(define-fun .def_161 () Bool (and .def_42 .def_160))
(define-fun .def_162 () Bool (and .def_50 .def_161))
(define-fun .def_163 () Bool (and .def_54 .def_162))
(define-fun .def_164 () Bool (and .def_58 .def_163))
(define-fun .def_165 () Bool (and .def_62 .def_164))
(define-fun .def_166 () Bool (and .def_66 .def_165))
(define-fun .def_167 () Bool (and .def_70 .def_166))
(define-fun .def_168 () Bool (and .def_154 .def_167))
(define-fun .def_172 () Bool (and .def_168 .def_171))
(define-fun .def_319 () Bool (or .def_172 .def_318))
(define-fun .def_138 () Bool (= k.next .def_49))
(define-fun .def_140 () Bool (and .def_138 .def_139))
(define-fun .def_141 () Bool (and .def_38 .def_140))
(define-fun .def_142 () Bool (and .def_35 .def_141))
(define-fun .def_143 () Bool (and .def_42 .def_142))
(define-fun .def_144 () Bool (and .def_50 .def_143))
(define-fun .def_145 () Bool (and .def_54 .def_144))
(define-fun .def_146 () Bool (and .def_58 .def_145))
(define-fun .def_147 () Bool (and .def_62 .def_146))
(define-fun .def_148 () Bool (and .def_66 .def_147))
(define-fun .def_149 () Bool (and .def_70 .def_148))
(define-fun .def_78 () Bool (and .def_25 .def_77))
(define-fun .def_79 () Bool (and .PC.3.next .def_78))
(define-fun .def_150 () Bool (and .def_79 .def_149))
(define-fun .def_135 () Bool (and .def_11 .def_134))
(define-fun .def_136 () Bool (and .def_10 .def_135))
(define-fun .def_151 () Bool (and .def_136 .def_150))
(define-fun .def_320 () Bool (or .def_151 .def_319))
(define-fun .def_123 () Bool (and .def_121 .def_122))
(define-fun .def_124 () Bool (and .def_83 .def_123))
(define-fun .def_125 () Bool (and .def_38 .def_124))
(define-fun .def_126 () Bool (and .def_35 .def_125))
(define-fun .def_127 () Bool (and .def_50 .def_126))
(define-fun .def_128 () Bool (and .def_54 .def_127))
(define-fun .def_129 () Bool (and .def_58 .def_128))
(define-fun .def_130 () Bool (and .def_62 .def_129))
(define-fun .def_131 () Bool (and .def_66 .def_130))
(define-fun .def_132 () Bool (and .def_70 .def_131))
(define-fun .def_133 () Bool (and .def_119 .def_132))
(define-fun .def_137 () Bool (and .def_133 .def_136))
(define-fun .def_321 () Bool (or .def_137 .def_320))
(define-fun .def_105 () Bool (= z.next .def_104))
(define-fun .def_80 () Bool (bvslt .def_45 .def_57))
(define-fun .def_101 () Bool (not .def_80))
(define-fun .def_106 () Bool (and .def_101 .def_105))
(define-fun .def_107 () Bool (and .def_38 .def_106))
(define-fun .def_108 () Bool (and .def_35 .def_107))
(define-fun .def_109 () Bool (and .def_42 .def_108))
(define-fun .def_110 () Bool (and .def_46 .def_109))
(define-fun .def_111 () Bool (and .def_50 .def_110))
(define-fun .def_112 () Bool (and .def_54 .def_111))
(define-fun .def_113 () Bool (and .def_58 .def_112))
(define-fun .def_114 () Bool (and .def_62 .def_113))
(define-fun .def_115 () Bool (and .def_66 .def_114))
(define-fun .def_116 () Bool (and .def_100 .def_115))
(define-fun .def_95 () Bool (and .def_9 .def_18))
(define-fun .def_117 () Bool (and .def_95 .def_116))
(define-fun .def_322 () Bool (or .def_117 .def_321))
(define-fun .def_84 () Bool (and .def_80 .def_83))
(define-fun .def_85 () Bool (and .def_38 .def_84))
(define-fun .def_86 () Bool (and .def_35 .def_85))
(define-fun .def_87 () Bool (and .def_42 .def_86))
(define-fun .def_88 () Bool (and .def_50 .def_87))
(define-fun .def_89 () Bool (and .def_54 .def_88))
(define-fun .def_90 () Bool (and .def_58 .def_89))
(define-fun .def_91 () Bool (and .def_62 .def_90))
(define-fun .def_92 () Bool (and .def_66 .def_91))
(define-fun .def_93 () Bool (and .def_70 .def_92))
(define-fun .def_94 () Bool (and .def_79 .def_93))
(define-fun .def_96 () Bool (and .def_94 .def_95))
(define-fun .def_323 () Bool (or .def_96 .def_322))
(define-fun .def_73 () Bool (and .def_11 .def_29))
(define-fun .def_74 () Bool (and .def_10 .def_73))
(define-fun .def_39 () Bool (and .def_35 .def_38))
(define-fun .def_43 () Bool (and .def_39 .def_42))
(define-fun .def_47 () Bool (and .def_43 .def_46))
(define-fun .def_51 () Bool (and .def_47 .def_50))
(define-fun .def_55 () Bool (and .def_51 .def_54))
(define-fun .def_59 () Bool (and .def_55 .def_58))
(define-fun .def_63 () Bool (and .def_59 .def_62))
(define-fun .def_67 () Bool (and .def_63 .def_66))
(define-fun .def_71 () Bool (and .def_67 .def_70))
(define-fun .def_28 () Bool (and .def_26 .PC.3.next))
(define-fun .def_72 () Bool (and .def_28 .def_71))
(define-fun .def_75 () Bool (and .def_72 .def_74))
(define-fun .def_324 () Bool (or .def_75 .def_323))
(define-fun .def_31 () Bool (and .def_9 .def_30))
(define-fun .def_32 () Bool (and .def_28 .def_31))
(define-fun .def_325 () Bool (! (or .def_32 .def_324) :trans true))
(define-fun .def_326 () Bool (! (not .def_31) :invar-property 0))
(assert true)
